Selected objective sense:  MINIMIZE
Selected objective  name:  OBJ
Selected RHS        name:  RHS1
Selected bound      name:  BND1
CPXPARAM_Preprocessing_Presolve                  0
CPXPARAM_LPMethod                                4
CPXPARAM_Threads                                 1
CPXPARAM_SolutionType                            2
CPXPARAM_TimeLimit                               3600
Tried aggregator 0 times.
Reduced presolve eliminated 11 rows and 11 columns.
Reduced LP has 1037 rows, 6482 columns, and 145861 nonzeros.
Presolve time = 0.01 sec. (17.17 ticks)
Parallel mode: none, using 1 thread for barrier
Number of nonzeros in lower triangle of A*A' = 23431
Using Approximate Minimum Degree ordering
Total time for automatic ordering = 0.00 sec. (6.02 ticks)
Summary statistics for Cholesky factor:
  Rows in Factor            = 1037
  Integer space required    = 23616
  Total non-zeros in factor = 24744
  Total FP ops to factor    = 605858
 Itn      Primal Obj        Dual Obj  Prim Inf Upper Inf  Dual Inf Inf Ratio
   0   7.0151128e+07  -2.7321912e+05  1.91e+07  0.00e+00  8.46e+04  1.00e+00
   1   3.1375467e+06  -6.6917534e+04  8.32e+05  1.29e-12  3.68e+04  4.01e-03
   2   3.5784179e+05  -2.6005953e+04  9.75e+04  7.83e-13  9.63e+03  1.26e-02
   3   3.7646433e+04  -1.6546707e+04  1.28e+04  6.93e-13  3.70e+03  3.50e-02
   4   1.5597946e+03  -7.2729330e+02  4.07e+02  7.22e-13  2.40e+02  9.96e-01
   5   1.5086374e+03   1.0511893e+03  8.62e+00  1.17e-12  4.90e+01  5.16e+00
   6   1.4956372e+03   1.3544264e+03  4.00e+00  5.68e-13  1.47e+01  3.38e+01
   7   1.4862499e+03   1.4414072e+03  1.44e+00  7.91e-13  4.59e+00  1.13e+02
   8   1.4830389e+03   1.4633198e+03  1.05e+00  8.87e-13  1.56e+00  3.86e+02
   9   1.4799425e+03   1.4681960e+03  7.23e-01  7.38e-13  7.72e-01  7.34e+02
  10   1.4792670e+03   1.4707030e+03  6.41e-01  1.16e-12  4.39e-01  1.19e+03
  11   1.4775419e+03   1.4725705e+03  4.41e-01  1.34e-12  1.70e-01  2.39e+03
  12   1.4757597e+03   1.4735676e+03  2.11e-01  1.41e-12  6.04e-02  5.06e+03
  13   1.4753508e+03   1.4739312e+03  1.54e-01  9.49e-13  2.88e-02  8.46e+03
  14   1.4751748e+03   1.4741555e+03  1.28e-01  2.32e-12  1.04e-02  1.57e+04
  15   1.4749351e+03   1.4741827e+03  9.36e-02  2.88e-12  8.27e-03  1.80e+04
  16   1.4746752e+03   1.4742644e+03  5.45e-02  4.04e-13  3.10e-03  3.02e+04
  17   1.4746199e+03   1.4743085e+03  4.54e-02  8.38e-13  1.40e-03  4.92e+04
  18   1.4744972e+03   1.4743311e+03  2.40e-02  8.89e-13  7.73e-04  7.92e+04
  19   1.4744199e+03   1.4743502e+03  1.08e-02  1.80e-12  1.93e-04  1.59e+05
  20   1.4744104e+03   1.4743555e+03  9.05e-03  2.78e-12  1.08e-04  2.54e+05
  21   1.4744058e+03   1.4743595e+03  8.20e-03  2.90e-12  2.69e-05  4.81e+05
  22   1.4743991e+03   1.4743608e+03  6.93e-03  4.08e-12  1.68e-05  6.29e+05
  23   1.4743987e+03   1.4743613e+03  6.83e-03  2.73e-12  1.41e-05  6.41e+05
  24   1.4743980e+03   1.4743614e+03  6.72e-03  1.50e-12  8.08e-06  6.78e+05
  25   1.4743899e+03   1.4743620e+03  5.18e-03  2.30e-12  4.18e-06  7.73e+05
  26   1.4743883e+03   1.4743624e+03  4.88e-03  2.54e-12  2.36e-06  9.20e+05
  27   1.4743833e+03   1.4743626e+03  3.93e-03  3.02e-12  5.89e-07  1.02e+06
  28   1.4743752e+03   1.4743632e+03  2.32e-03  2.99e-12  1.47e-07  1.28e+06
  29   1.4743684e+03   1.4743640e+03  8.91e-04  2.50e-12  3.69e-08  2.22e+06
  30   1.4743656e+03   1.4743643e+03  1.78e-04  8.28e-13  2.50e-08  3.16e+06
  31   1.4743651e+03   1.4743649e+03  3.00e-05  1.31e-12  4.24e-09  2.92e+07
  32   1.4743650e+03   1.4743649e+03  4.65e-07  1.18e-12  2.85e-09  4.39e+07
  33   1.4743650e+03   1.4743649e+03  4.60e-07  1.17e-12  2.57e-09  5.07e+07
Barrier time = 0.17 sec. (455.42 ticks)

Total time on 1 threads = 0.17 sec. (455.42 ticks)
Solve time: 0.165661866
Barrier iterations: 33
